(set-logic QF_S)
(declare-fun var0 () String)
(declare-fun var1 () Int)
(declare-fun var2 () Bool)
(declare-fun var3 () String)
(declare-fun var4 () Int)
(declare-fun var5 () Bool)
(declare-fun var6 () String)
(declare-fun var7 () Int)
(declare-fun var8 () Bool)
(assert (str.in.re (str.substr "$.0m?d)Tdy" var7 var7) (re.* re.allchar)))
(assert (str.prefixof var3 var3))
(assert (str.prefixof (str.substr (str.substr var3 var1 var4) (str.len var6) (str.len var0)) (str.at (str.at var3 var4) (str.indexof var0 var0 var7))))
(assert (>= (str.len (str.replace var6 var3 var6)) (str.indexof (str.substr var6 var1 var4) (str.replace var6 var6 var0) (str.len var3))))
(check-sat)